
param : I  : x   :=
        1   0.18
        2   0.17
        3   0.47
        4   0.95
        5   0.90;

param :   I   : y :=
        1    0.21
        2    0.22
        3    0.47
        4    0.40
        5    0.50;
